StringID     Type         x            y            demand       ReadyTime    DueDate      ServiceTime  PartnerID
D0           d            35.0         35.0         0.0          0.0          230.0        1.0          0
C1           cp           41.0         49.0         50.0         12.0         146.0        9.0          C10
C2           cp           55.0         22.0         42.0         14.0         191.0        10.0         C11
C3           cp           20.0         13.0         45.0         17.0         180.0        14.0         C12
C4           cp           40.0         20.0         55.0         19.0         199.0        7.0          C13
C5           cp           38.0         12.0         45.0         15.0         195.0        9.0          C14
C6           cp           17.0         10.0         55.0         12.0         209.0        12.0         C15
C7           cp           25.0         19.0         45.0         13.0         215.0        8.0          C16
C8           cp           12.0         27.0         35.0         24.0         220.0        6.0          C17
C9           cp           40.0         14.0         55.0         35.0         241.0        11.0         C18
C10          cd           86.0         12.0         -50.0        46.0         266.0        9.0          C1
C11          cd           56.0         52.0         -42.0        55.0         254.0        11.0         C2
C12          cd           14.0         35.0         -45.0        23.0         285.0        5.0          C3
C13          cd           77.0         85.0         -55.0        38.0         263.0        12.0         C4
C14          cd           30.0         12.0         -45.0        53.0         191.0        7.0          C5
C15          cd           57.0         85.0         -55.0        69.0         342.0        9.0          C6
C16          cd           33.0         13.0         -45.0        75.0         402.0        6.0          C7
C17          cd           78.0         11.0         -35.0        55.0         338.0        5.0          C8
C18          cd           2.0          8.0          -55.0        35.0         363.0        7.0          C9

VehicleCount : 3
VehiclePerCapacity:   50
VehicleMaxTrolleyCount : 2
TrolleyImpactRate : 1.2
EarlinessPenalty : 25
TardinessPenalty : 25
